%mem=26GB
%NProcShared=8
# opt=tight mpw1pw91/6-311g(d,p) integral=ultrafine MaxDisk=50GB

1 OPT

0 1
 C            2.17462           1.25592          -0.15658
 C            2.23175          -0.14911          -0.21277
 C            3.38438          -0.78980          -0.64265
 C            4.47843          -0.00693          -1.01943
 C            4.41410           1.39444          -0.95865
 C            3.25245           2.03829          -0.52552
 C            0.95183          -0.76073           0.30400
 N            0.02657           0.49138           0.29031
 C            0.89323           1.66799           0.23718
 O            0.34394           2.93890           0.14783
 C            0.96912           3.98911           0.04628
 C           -1.18491           2.91605           0.19049
 C           -1.75379           1.88179          -0.80665
 C           -0.88921           0.61606          -0.93779
 O           -1.60996          -0.69654          -1.22460
 C           -2.35126          -1.19428           0.00360
 C           -3.19506          -0.43520           0.73050
 C           -3.59992           0.99711           0.53191
 C           -3.14496           1.59861          -0.66771
 C           -1.93811          -2.57837           0.46391
 C           -0.48278          -2.66433           0.67775
 C            0.33693          -2.00463          -0.37794
 C           -0.50094          -1.69088          -1.61864
 C           -0.07081          -2.13308           1.98561
 N            1.16604          -1.28796           1.72878
 H            3.45285          -1.87266          -0.67411
 H            5.39476          -0.48638          -1.35693
 H            5.27690           1.98683          -1.25463
 H            3.20884           3.12179          -0.49166
 H           -0.55591           0.55582           1.21787
 H           -1.49154           2.72088           1.22257
 H           -1.56968           3.91136          -0.06000
 H           -1.69867           2.36948          -1.79033
 H           -0.24312           0.81638          -1.80932
 H           -2.30240          -0.59133          -2.06806
 H           -3.63700          -0.87793           1.62317
 H           -4.69463           1.02665           0.49391
 H           -3.30688           1.59434           1.40003
 H           -2.47006          -2.88461           1.37382
 H           -2.23736          -3.31193          -0.29547
 H            1.12871          -2.71010          -0.65875
 H           -0.93497          -2.60912          -2.03537
 H            0.13572          -1.27921          -2.41188
 H           -0.84471          -1.50784           2.44686
 H            0.14615          -2.94957           2.68189
 H            1.28078          -0.49374           2.47495
 H            2.06055          -1.92293           1.78224




