%mem=26GB
%NProcShared=8
# opt=tight mpw1pw91/6-311g(d,p) integral=ultrafine MaxDisk=50GB

2 OPT

0 1
 C            2.17040           1.26379          -0.15182
 C            2.23228          -0.14084          -0.21285
 C            3.38715          -0.77615          -0.64470
 C            4.47862           0.01170          -1.01855
 C            4.40955           1.41263          -0.95295
 C            3.24565           2.05106          -0.51784
 C            0.95434          -0.75855           0.30156
 N            0.02485           0.49046           0.29201
 C            0.88755           1.67016           0.24310
 O            0.33398           2.93952           0.15803
 C            0.95564           3.99218           0.06023
 C           -1.19479           2.91136           0.20031
 C           -1.75999           1.87863          -0.80051
 C           -0.89112           0.61628          -0.93584
 O           -1.60737          -0.69774          -1.22732
 C           -2.34721          -1.20221          -0.00098
 C           -3.19371          -0.44849           0.72836
 C           -3.60337           0.98311           0.53462
 C           -3.15022           1.59028          -0.66282
 C           -1.92948          -2.58648           0.45464
 C           -0.47390          -2.66826           0.66847
 C            0.34377          -2.00217          -0.38479
 C           -0.49493          -1.68698          -1.62456
 C           -0.06397          -2.14015           1.97823
 N            1.17006          -1.28997           1.72456
 H            3.45928          -1.85865          -0.67988
 H            5.39663          -0.46348          -1.35751
 H            5.27040           2.00895          -1.24671
 H            3.19837           3.13428          -0.48026
 H           -0.55801           0.54974           1.21967
 H           -1.50095           2.71159           1.23165
 H           -1.58287           3.90622          -0.04683
 H           -1.70632           2.36989          -1.78249
 H           -0.24554           0.82178          -1.80655
 H           -2.30001          -0.59197          -2.07054
 H           -3.63431          -0.89578           1.61942
 H           -4.69817           1.00908           0.49650
 H           -3.31251           1.57834           1.40485
 H           -2.22611          -3.31842          -0.30732
 H           -2.46056          -2.89765           1.36338
 H            1.13798          -2.70399          -0.66787
 H            0.14048          -1.27043          -2.41625
 H           -0.92578          -2.60524          -2.04453
 H            0.15562          -2.95830           2.67173
 H           -0.84006          -1.51912           2.44148
 H            1.28198          -0.49794           2.47348
 H            2.06670          -1.92209           1.77600




