%mem=26GB
%NProcShared=8
# opt=tight mpw1pw91/6-311g(d,p) integral=ultrafine MaxDisk=50GB

3 OPT

0 1
 C            2.02156           1.59357          -0.14216
 C            2.27200           0.21563          -0.14683
 C            3.51239          -0.27527          -0.53478
 C            4.49882           0.63233          -0.92535
 C            4.24195           2.01046          -0.91973
 C            2.99385           2.50040          -0.52698
 C            1.07716          -0.55359           0.35734
 N           -0.01524           0.56304           0.38165
 C            0.69226           1.84423           0.23310
 O            0.00447           3.03407           0.07875
 C            0.51942           4.13370          -0.11462
 C           -1.51224           2.90507           0.17758
 C           -2.13094           1.59823          -0.38151
 C           -1.04747           0.56200          -0.75469
 O           -1.48083          -0.85439          -1.15702
 C           -2.14666          -1.63949          -0.04396
 C           -3.26135          -1.19695           0.56357
 C           -3.91428           0.10157           0.23309
 C           -3.03903           1.14696           0.63321
 C           -1.44269          -2.90671           0.38324
 C           -0.01577          -2.68108           0.63760
 C            0.66598          -1.84129          -0.38305
 C           -0.20677          -1.58422          -1.61070
 C            0.23573          -2.10493           1.96659
 N            1.35118          -1.09461           1.76627
 H            3.72789          -1.33931          -0.52424
 H            5.47807           0.26983          -1.22956
 H            5.02022           2.70655          -1.22360
 H            2.80852           3.56926          -0.53109
 H           -0.52599           0.58187           1.35360
 H           -1.94549           3.74792          -0.37591
 H           -1.77862           3.05368           1.23161
 H           -2.71743           1.84789          -1.27529
 H           -0.56668           0.97734          -1.65666
 H           -2.16301          -0.79815          -2.01506
 H           -3.70463          -1.76704           1.37600
 H           -4.82971           0.19741           0.82636
 H           -4.20321           0.17726          -0.82120
 H           -1.91624          -3.35848           1.26436
 H           -1.54964          -3.65584          -0.41167
 H            1.55622          -2.39625          -0.70359
 H            0.34350          -0.99210          -2.35268
 H           -0.45894          -2.52889          -2.11002
 H            0.52583          -2.88347           2.67928
 H           -0.64509          -1.59444           2.37465
 H            1.34845          -0.31890           2.54001
 H            2.32247          -1.60486           1.81408




