%mem=26GB
%NProcShared=8
# opt=tight mpw1pw91/6-311g(d,p) integral=ultrafine MaxDisk=50GB

4 OPT

0 1
 C            2.17017           1.26512          -0.14376
 C            2.23376          -0.13973          -0.19744
 C            3.39203          -0.77604          -0.61858
 C            4.48518           0.01101          -0.98917
 C            4.41437           1.41218          -0.93096
 C            3.24705           2.05162          -0.50663
 C            0.95304          -0.75613           0.31159
 N            0.02247           0.49192           0.28977
 C            0.88437           1.67220           0.24073
 O            0.33020           2.94059           0.14577
 C            0.95150           3.99336           0.04687
 C           -1.19879           2.91117           0.17813
 C           -1.75643           1.87298          -0.82128
 C           -0.88551           0.61083          -0.94468
 O           -1.59859          -0.70531          -1.23441
 C           -2.34602          -1.20448          -0.01051
 C           -3.19801          -0.44802           0.70954
 C           -3.60770           0.98223           0.50610
 C           -3.14726           1.58396          -0.69131
 C           -1.93001          -2.58610           0.45464
 C           -0.47580          -2.66541           0.67846
 C            0.34817          -2.00369          -0.37265
 C           -0.48262          -1.69540          -1.61945
 C           -0.07501          -2.13047           1.98828
 N            1.15987          -1.28034           1.73858
 H            3.46540          -1.85864          -0.64793
 H            5.40583          -0.46495          -1.31978
 H            5.27656           2.00788          -1.22204
 H            3.19851           3.13497          -0.47472
 H           -0.56655           0.55520           1.21327
 H           -1.58616           3.90442          -0.07646
 H           -1.51155           2.71619           1.20841
 H           -1.69677           2.35945          -1.80530
 H           -0.23440           0.81268          -1.81212
 H           -2.28575          -0.60434          -2.08268
 H           -3.64406          -0.89137           1.59986
 H           -3.32310           1.58199           1.37529
 H           -4.70225           1.00697           0.46068
 H           -2.46678          -2.89333           1.36138
 H           -2.22092          -3.32205          -0.30567
 H            1.14489          -2.70612          -0.64704
 H           -0.90982          -2.61612          -2.03775
 H            0.15761          -1.28211          -2.40897
 H           -0.85472          -1.50792           2.44335
 H            0.14076          -2.94499           2.68723
 H            1.26609          -0.48453           2.48431
 H            2.05675          -1.91133           1.79904




